
  22   10
  10   10   10   10   10   10   10   10   10   10

   0   0   0   0   0   0   0   0   0   0   0   3 2 4 6 
   9   0   0   0   0   0   0   0   0  10   0   2 7 3 
   2   0   0   0   0   0  10   0   0   0   0   3 10 9 8 
   4   0  10   0   0   0   0   0   0   0   0   1 5 
  10   0   0   0   0   0   0   0   0  10   0   2 13 7 
   1   0   0   0   0   0   0  10   0   0   0   6 21 19 14 13 12 11 
   8   0  10   0   0   0   0   0   0   0   0   4 21 12 11 9 
   1   0   0   0   0   0   0   0   0   0  10   5 19 14 13 12 11 
   4  10   0   0   0   0   0   0   0   0   0   5 19 18 17 16 14 
   2   0   0   0   0   0   0  10   0   0   0   4 21 17 16 14 
   8   0   0   0   0   0   0  10   0   0   0   2 20 15 
   5   0   0   0   0   0   0   0   0  10   0   2 18 17 
   5   0   0   0   0   0  10   0   0   0   0   2 16 15 
   4   0   0   0  10   0   0   0   0   0   0   1 15 
   1   0  10   0   0   0   0   0   0   0   0   1 22
   5   0   0   0   0  10   0   0   0   0   0   1 22
   1   0   0   0   0  10   0   0   0   0   0   1 22
   4   0   0   0   0   0   0  10   0   0   0   1 22
   7   0   0   0   0   0  10   0   0   0   0   1 22
   4   0   0   0   0   0  10   0   0   0   0   1 22
   9   0   0   0  10   0   0   0   0   0   0   1 22
   0   0   0   0   0   0   0   0   0   0   0   0 
